proyfinal/src/viki/013/experimentInOfficeAgust.take6.output/8da527c1-c9c9-42a9-98e6-58dd861a5b77.als.dat
{'cnf.clauses': '118081',
 'cnf.totvars': '69608',
 'conflict literals': '113',
 'conflicts': '36',
 'decisions': '9979',
 'memused.mb': '16.98',
 'outcome': 'UNSAT',
 'propagations': '38673',
 'restarts': '1',
 'solver.msecs': 33,
 'task.msecs': 113}
