proyfinal/src/viki/013/experimentInOfficeAgust.take6.output/8da527c1-c9c9-42a9-98e6-58dd861a5b77.als.out
Reading from standard input... Use '--help' for help.
============================[ Problem Statistics ]=============================
|                                                                             |
|  Number of variables:         69608                                         |
|  Number of clauses:          118081                                         |
|  Parse time:                   0.02 s                                       |
|                                                                             |
============================[ Search Statistics ]==============================
| Conflicts |          ORIGINAL         |          LEARNT          | Progress |
|           |    Vars  Clauses Literals |    Limit  Clauses Lit/Cl |          |
===============================================================================
===============================================================================
restarts              : 1
conflicts             : 36             (1090 /sec)
decisions             : 9979           (0.00 % random) (302165 /sec)
propagations          : 38673          (1171022 /sec)
conflict literals     : 113            (0.00 % deleted)
Memory used           : 16.98 MB
CPU time              : 0.033025 s

UNSATISFIABLE
